2131 3139 2400 2366 5543 1627 5022 30 5240 316 13 64 585 837 1106 1358 1879 2148 2417 2669 2921 2938 3190 3425 3442 3459 3711 3980 4232 4501 4753 4988 5274 5509 5795 282 820 1072 1324 2097 3408 47 265 299 534 551 568 786 803 1055 1089 1307 1341 1576 1593 1610 1828 1845 1862 2114 2349 
